NumberOfAtoms  12
NumberOfSpecies   1
LatticeConstant 1.0 Ang
%block LatticeVectors
    2.95570000	    0.00000000	    0.00000000
    0.00000000	    5.11940000	    0.00000000
    0.00000000	    0.00000000	   14.47990000
%endblock LatticeVectors
AtomicCoordinatesFormat  Ang
%block AtomicCoordinatesAndAtomicSpecies
      0.00000000	      0.00000000	      0.00000000	    1	    1	 Au
      1.47785000	      2.55970000	      0.00000000	    1	    2	 Au
      0.00000000	      1.70646667	      2.41331667	    1	    3	 Au
      1.47785000	      4.26616667	      2.41331667	    1	    4	 Au
      1.47785000	      0.85323333	      4.82663333	    1	    5	 Au
      0.00000000	      3.41293333	      4.82663333	    1	    6	 Au
      0.00000000	      0.00000000	      7.23995000	    1	    7	 Au
      1.47785000	      2.55970000	      7.23995000	    1	    8	 Au
      0.00000000	      1.70646667	      9.65326667	    1	    9	 Au
      1.47785000	      4.26616667	      9.65326667	    1	   10	 Au
      1.47785000	      0.85323333	     12.06658333	    1	   11	 Au
      0.00000000	      3.41293333	     12.06658333	    1	   12	 Au
%endblock AtomicCoordinatesAndAtomicSpecies
